c   #vars: 124   #clauses: 563   #literals: 1512
c 
p cnf 124 563
-1 -2 0
-3 -4 0
-5 -6 0
-8 -9 0
-10 -11 0
-12 -13 0
25 -35 73 74 0
38 39 75 76 0
40 41 75 76 0
-15 -16 0
-17 -18 0
-19 -20 0
-21 -22 0
-23 -24 0
-26 -27 0
-28 -29 0
-30 -31 0
-32 -33 0
-34 -35 0
-36 -37 0
-38 -39 0
-40 -41 0
-42 -43 0
-44 -45 0
71 72 102 103 0
-46 -47 0
-48 -49 0
-50 -51 0
-52 -53 0
-54 -55 0
-56 -57 0
1 2 67 -96 0
44 45 46 47 0
46 47 106 107 0
-59 -60 0
-61 -62 0
-63 -64 0
-65 -66 0
44 45 -61 68 0
87 96 97 -100 0
-69 -70 0
-71 -72 0
-73 -74 0
-75 -76 0
-77 -78 0
-79 -80 0
-81 -82 0
-83 -84 0
-85 -86 0
12 13 110 -117 0
-88 -89 0
-90 -91 0
-92 -93 0
-94 -95 0
-96 -97 0
-98 -99 0
-100 -101 0
-102 -103 0
-104 -105 0
15 16 83 84 0
21 22 83 84 0
42 43 111 112 0
-106 -107 0
-108 -109 0
85 86 94 95 0
-111 -112 0
-113 -114 0
-115 -116 0
1 2 12 13 0
-117 -118 0
-119 -120 0
5 6 104 105 0
-121 -122 0
36 37 73 74 0
-123 -124 0
7 25 -35 -123 0
-1 -12 0
-2 -13 0
69 70 102 103 0
-1 -26 0
-2 -27 0
5 6 40 41 0
-1 -36 0
-2 -37 0
10 11 69 70 0
-1 -59 0
-2 -60 0
32 33 77 78 0
-5 44 45 68 0
-2 -67 0
-3 -19 0
-4 -20 0
32 33 73 74 0
-3 -81 0
-4 -82 0
-3 -83 0
-4 -84 0
17 18 59 60 0
-3 -104 0
-4 -105 0
-54 58 90 91 0
-5 -40 0
-6 -41 0
38 39 79 80 0
-73 87 96 97 0
-6 -68 0
17 18 58 -90 0
-5 -75 0
-6 -76 0
92 93 113 114 0
-5 -104 0
-6 -105 0
7 -25 123 124 0
-5 -123 0
-6 -124 0
7 81 82 -123 0
5 6 75 76 0
-7 -82 0
10 11 117 118 0
14 -40 102 103 0
-7 -124 0
12 13 115 116 0
-8 -32 0
-9 -33 0
52 53 98 99 0
-8 -38 0
-9 -39 0
-8 -46 0
-9 -47 0
28 29 79 80 0
-8 -81 0
-9 -82 0
21 22 123 124 0
-10 -54 0
-11 -55 0
3 4 81 82 0
-10 -69 0
-11 -70 0
10 11 94 95 0
-10 -94 0
-11 -95 0
-5 61 62 68 0
-10 -117 0
-11 -118 0
-7 25 73 74 0
-13 -14 0
46 47 111 112 0
-12 -21 0
-13 -22 0
12 13 113 114 0
-12 -28 0
-13 -29 0
50 51 94 95 0
-13 -110 0
48 49 115 116 0
-12 -113 0
-13 -114 0
63 64 73 74 0
-12 -115 0
-13 -116 0
25 34 35 -74 0
-14 -41 0
12 13 14 -102 0
15 16 26 27 0
-7 25 34 35 0
-14 -103 0
40 41 81 82 0
19 20 100 101 0
54 55 58 -90 0
81 82 111 112 0
-12 14 102 103 0
17 18 85 86 0
14 40 41 -102 0
73 74 102 103 0
-15 -26 0
-16 -27 0
77 78 88 89 0
-15 -83 0
-16 -84 0
-17 58 90 91 0
-15 -88 0
-16 -89 0
17 18 61 62 0
-15 -90 0
-16 -91 0
19 20 106 107 0
-17 -36 0
-18 -37 0
79 80 108 109 0
1 2 -52 67 0
-18 -58 0
-17 -59 0
-18 -60 0
44 45 119 120 0
-17 -61 0
-18 -62 0
26 27 65 66 0
-17 -63 0
-18 -64 0
19 20 63 64 0
-17 -85 0
-18 -86 0
19 20 56 57 0
-17 -108 0
-18 -109 0
42 43 56 57 0
42 43 123 124 0
30 31 38 39 0
-19 -30 0
-20 -31 0
56 57 63 64 0
-19 -56 0
-20 -57 0
65 66 88 89 0
-19 -63 0
-20 -64 0
59 60 104 105 0
-19 -100 0
-20 -101 0
102 103 117 118 0
-19 -106 0
-20 -107 0
8 9 32 33 0
-19 -111 0
-20 -112 0
73 74 81 82 0
-21 -65 0
-22 -66 0
42 43 77 78 0
-21 -83 0
-22 -84 0
23 24 56 57 0
-21 -123 0
-22 -124 0
-23 -50 0
-24 -51 0
-23 -56 0
-24 -57 0
34 35 77 78 0
-23 -77 0
-24 -78 0
36 37 54 55 0
-23 -108 0
-24 -109 0
-25 -34 0
48 49 117 118 0
-25 -73 0
44 45 108 109 0
-26 -38 0
-27 -39 0
17 18 -54 58 0
-26 -65 0
-27 -66 0
28 29 77 78 0
-26 -108 0
-27 -109 0
85 86 119 120 0
-28 -77 0
-29 -78 0
44 45 102 103 0
-28 -79 0
-29 -80 0
3 4 83 84 0
-28 -106 0
-29 -107 0
26 27 38 39 0
-30 -38 0
-31 -39 0
8 9 38 39 0
-30 -50 0
-31 -51 0
85 86 121 122 0
-30 -96 0
-31 -97 0
79 80 113 114 0
-30 -98 0
-31 -99 0
32 33 34 35 0
-32 -34 0
-33 -35 0
34 35 71 72 0
-32 -73 0
-33 -74 0
34 35 56 57 0
-32 -77 0
-33 -78 0
-32 -85 0
-33 -86 0
-32 -96 0
-33 -97 0
8 9 81 82 0
-32 -123 0
-33 -124 0
17 18 36 37 0
-34 -46 0
-35 -47 0
61 62 63 64 0
-34 -56 0
-35 -57 0
-34 -71 0
-35 -72 0
1 2 36 37 0
-34 -77 0
-35 -78 0
-35 -110 0
34 35 46 47 0
7 25 -74 -123 0
-1 67 96 97 0
-36 -54 0
-37 -55 0
19 20 111 112 0
12 13 14 -40 0
-36 -73 0
-37 -74 0
-36 -115 0
-37 -116 0
-38 -75 0
-39 -76 0
5 6 123 124 0
-38 -79 0
-39 -80 0
-40 -50 0
-41 -51 0
40 41 50 51 0
-40 -75 0
-41 -76 0
30 31 50 51 0
-40 -81 0
-41 -82 0
50 51 90 91 0
-40 -98 0
-41 -99 0
73 74 87 -100 0
-42 -56 0
-43 -57 0
23 24 108 109 0
-42 -77 0
-43 -78 0
65 66 111 112 0
-42 -106 0
-43 -107 0
52 53 75 76 0
-42 -111 0
-43 -112 0
75 76 104 105 0
-42 -123 0
-43 -124 0
61 62 92 93 0
-44 -46 0
-45 -47 0
17 18 108 109 0
87 -96 100 101 0
-45 -68 0
73 74 87 -96 0
-44 -102 0
-45 -103 0
-44 -108 0
-45 -109 0
121 122 123 124 0
-44 -119 0
-45 -120 0
-12 14 40 41 0
-46 -96 0
-47 -97 0
100 101 117 118 0
-46 -106 0
-47 -107 0
65 66 75 76 0
-46 -111 0
-47 -112 0
-48 -71 0
-49 -72 0
12 13 28 29 0
-48 -98 0
-49 -99 0
7 25 -74 -81 0
-48 -115 0
-49 -116 0
61 62 79 80 0
-48 -117 0
-49 -118 0
59 60 92 93 0
-50 -90 0
-51 -91 0
56 57 119 120 0
-50 -94 0
-51 -95 0
3 4 19 20 0
5 6 -61 68 0
-53 -67 0
10 11 54 55 0
-52 -75 0
-53 -76 0
-52 -98 0
-53 -99 0
23 24 77 78 0
-52 -117 0
-53 -118 0
8 9 46 47 0
52 53 67 -96 0
-55 -58 0
26 27 108 109 0
-54 -65 0
-55 -66 0
-56 -63 0
-57 -64 0
1 2 26 27 0
-56 -119 0
-57 -120 0
7 -25 81 82 0
-1 52 53 67 0
-58 -91 0
28 29 106 107 0
-59 -92 0
-60 -93 0
83 84 108 109 0
-59 -104 0
-60 -105 0
119 120 121 122 0
-61 -63 0
-62 -64 0
77 78 108 109 0
-73 87 100 101 0
-62 -68 0
30 31 96 97 0
-61 -79 0
-62 -80 0
88 89 100 101 0
-61 -92 0
-62 -93 0
54 55 65 66 0
-63 -73 0
-64 -74 0
21 22 65 66 0
-63 -106 0
-64 -107 0
71 72 92 93 0
-65 -75 0
-66 -76 0
15 16 90 91 0
-65 -88 0
-66 -89 0
48 49 71 72 0
-65 -111 0
-66 -112 0
48 49 98 99 0
5 6 -44 68 0
-67 -97 0
15 16 88 89 0
-69 -96 0
-70 -97 0
34 35 110 -117 0
-69 -102 0
-70 -103 0
81 82 85 86 0
-69 -113 0
-70 -114 0
-71 -92 0
-72 -93 0
83 84 115 116 0
-71 -94 0
-72 -95 0
83 84 90 91 0
-71 -102 0
-72 -103 0
81 82 94 95 0
19 20 30 31 0
-17 54 55 58 0
77 78 111 112 0
-73 -81 0
-74 -82 0
7 25 -35 -81 0
12 13 -34 110 0
-74 -87 0
63 64 106 107 0
-73 -102 0
-74 -103 0
1 2 59 60 0
-73 -119 0
-74 -120 0
69 70 113 114 0
-75 -104 0
-76 -105 0
79 80 106 107 0
-75 -123 0
-76 -124 0
-52 67 96 97 0
-77 -88 0
-78 -89 0
-77 -108 0
-78 -109 0
75 76 123 124 0
-77 -111 0
-78 -112 0
52 53 117 118 0
-79 -106 0
-80 -107 0
32 33 85 86 0
-79 -108 0
-80 -109 0
7 -81 123 124 0
-79 -113 0
-80 -114 0
-79 -121 0
-80 -122 0
85 86 96 97 0
-81 -85 0
-82 -86 0
94 95 98 99 0
-81 -94 0
-82 -95 0
32 33 123 124 0
-81 -111 0
-82 -112 0
-83 -90 0
-84 -91 0
71 72 94 95 0
-83 -108 0
-84 -109 0
32 33 96 97 0
-83 -115 0
-84 -116 0
40 41 98 99 0
-85 -94 0
-86 -95 0
46 47 96 97 0
-85 -96 0
-86 -97 0
-44 61 62 68 0
-85 -119 0
-86 -120 0
73 74 119 120 0
-85 -121 0
-86 -122 0
36 37 115 116 0
-34 110 117 118 0
-87 -97 0
17 18 63 64 0
-12 110 117 118 0
-87 -101 0
69 70 96 97 0
-88 -100 0
-89 -101 0
12 13 21 22 0
-92 -113 0
-93 -114 0
30 31 98 99 0
-94 -98 0
-95 -99 0
3 4 104 105 0
-100 -117 0
-101 -118 0
42 43 106 107 0
-102 -117 0
-103 -118 0
-12 34 35 110 0
-110 -118 0
79 80 121 122 0
-119 -121 0
-120 -122 0
23 24 50 51 0
-121 -123 0
-122 -124 0
